p wcnf 2000 200 1
1 1 0
1 2 0
1 3 0
1 4 0
1 5 0
1 6 0
1 7 0
1 8 0
1 9 0
1 10 0
1 11 0
1 12 0
1 1 1 1 1 1 1 1 1 1 1 1 0
1 1 1 1 1 1 2 2 2 2 2 2 0
1 2 2 2 2 2 2 2 2 2 2 2 0
1 2 3 3 3 3 3 3 3 3 3 3 0
1 3 3 3 3 3 3 3 3 3 3 3 0
1 3 3 4 4 4 4 4 4 4 4 4 0
1 4 4 4 4 4 4 4 4 4 4 4 0
1 5 5 5 5 5 5 5 5 5 5 5 0
1 5 5 5 5 5 5 5 5 5 5 5 0
1 6 6 6 6 6 6 6 6 6 6 6 0
1 6 6 6 6 6 6 6 6 6 6 7 0
1 7 7 7 7 7 7 7 7 7 7 7 0
1 8 8 8 8 8 8 8 8 8 8 8 0
1 9 9 9 9 9 9 9 9 9 9 9 0
1 9 9 9 9 9 9 10 10 10 10 10 0
1 10 10 10 10 10 10 10 10 10 10 10 0
1 10 10 10 10 10 10 11 11 11 11 11 0
1 11 11 11 11 11 11 11 11 11 11 11 0
1 11 11 11 12 12 12 12 12 12 12 12 0
1 12 12 12 12 12 12 12 13 13 13 13 0
1 13 13 13 13 13 13 13 13 13 14 14 0
1 14 14 14 14 14 14 14 14 14 14 14 0
1 14 14 14 14 14 14 14 14 14 14 14 0
1 15 15 15 15 15 15 15 15 15 15 15 0
1 15 15 15 15 16 16 16 16 16 16 16 0
1 16 16 16 16 16 16 16 16 16 16 16 0
1 16 16 16 16 16 16 17 17 17 17 17 0
1 17 17 17 17 17 17 17 17 17 17 17 0
1 17 17 17 17 17 17 17 17 17 18 18 0
1 18 18 18 18 18 18 18 18 18 18 18 0
1 18 18 18 18 18 19 19 19 19 19 19 0
1 19 19 19 19 19 19 19 19 19 19 19 0
1 19 20 20 20 20 20 20 20 20 20 20 0
1 20 20 20 20 21 21 21 21 21 21 21 0
1 21 21 21 21 21 21 21 21 21 22 22 0
1 22 22 22 22 22 22 22 22 22 22 22 0
1 22 22 22 22 22 22 22 22 23 23 23 0
1 23 23 23 23 23 23 23 23 23 23 23 0
1 23 23 24 24 24 24 24 24 24 24 24 0
1 24 24 24 24 24 24 24 24 24 24 24 0
1 25 25 25 25 25 25 25 25 25 25 25 0
1 25 25 25 25 25 25 25 25 25 25 25 0
1 25 25 25 25 26 26 26 26 26 26 26 0
1 26 26 26 26 26 26 26 27 27 27 27 0
1 27 27 27 27 27 27 27 27 27 27 27 0
1 27 27 27 28 28 28 28 28 28 28 28 0
1 28 28 28 28 28 29 29 29 29 29 29 0
1 29 29 29 29 29 29 29 29 30 30 30 0
1 30 30 30 30 30 30 30 30 30 30 31 0
1 31 31 31 31 31 31 31 31 31 31 31 0
1 31 31 31 31 31 31 31 31 31 32 32 0
1 32 32 32 32 32 32 32 32 32 32 32 0
1 32 32 32 32 33 33 33 33 33 33 33 0
1 33 33 33 33 33 33 33 33 33 33 33 0
1 33 33 33 33 33 33 33 33 33 34 34 0
1 34 34 34 34 34 34 34 34 34 34 34 0
1 35 35 35 35 35 35 35 35 35 35 35 0
1 35 35 35 35 35 35 35 35 35 35 35 0
1 36 36 36 36 36 36 36 36 36 36 36 0
1 36 36 36 36 36 37 37 37 37 37 37 0
1 37 37 37 37 37 37 38 38 38 38 38 0
1 38 38 38 38 38 38 38 38 38 38 38 0
1 38 38 38 38 38 38 38 38 38 39 39 0
1 39 39 39 39 39 39 39 39 39 39 39 0
1 39 40 40 40 40 40 40 40 40 40 40 0
1 40 40 40 40 40 40 40 40 41 41 41 0
1 41 41 41 41 41 41 41 41 41 41 41 0
1 41 42 42 42 42 42 42 42 42 42 42 0
1 42 42 42 42 42 42 42 42 42 42 43 0
1 43 43 43 43 43 43 43 43 43 43 43 0
1 43 43 43 43 43 43 43 43 43 44 44 0
1 44 44 44 44 44 44 44 44 44 44 44 0
1 44 44 44 45 45 45 45 45 45 45 45 0
1 45 45 45 45 45 45 45 46 46 46 46 0
1 46 46 46 46 46 46 46 46 46 46 46 0
1 46 47 47 47 47 47 47 47 47 47 47 0
1 47 47 47 47 47 47 47 47 47 47 47 0
1 47 48 48 48 48 48 48 48 48 48 48 0
1 48 48 48 48 48 49 49 49 49 49 49 0
1 49 49 49 49 49 49 49 49 49 49 49 0
1 50 50 50 50 50 50 50 50 50 50 50 0
1 50 50 50 50 50 51 51 51 51 51 51 0
1 51 51 51 51 51 51 51 51 51 51 51 0
1 52 52 52 52 52 52 52 52 52 52 52 0
1 52 52 52 52 52 52 52 52 52 53 53 0
1 53 53 53 53 53 53 53 53 53 53 53 0
1 53 53 53 53 53 53 53 53 54 54 54 0
1 54 54 54 54 54 54 54 54 54 54 54 0
1 54 54 54 54 54 54 55 55 55 55 55 0
1 55 55 55 55 55 55 55 55 55 55 55 0
1 55 55 55 55 56 56 56 56 56 56 56 0
1 56 56 56 56 56 56 56 56 56 56 57 0
1 57 57 57 57 57 57 57 57 57 57 57 0
1 57 57 57 58 58 58 58 58 58 58 58 0
1 58 58 58 58 58 58 58 58 58 58 58 0
1 59 59 59 59 59 59 59 59 59 59 59 0
1 60 60 60 60 60 60 60 60 60 60 60 0
1 60 60 60 60 60 60 60 61 61 61 61 0
1 61 61 61 61 61 61 61 61 61 61 61 0
1 62 62 62 62 62 62 62 62 62 62 62 0
1 62 62 62 62 62 62 63 63 63 63 63 0
1 63 63 63 63 63 63 63 64 64 64 64 0
1 64 64 64 64 64 64 64 64 64 64 64 0
1 64 64 64 64 64 64 64 64 65 65 65 0
1 65 65 65 65 65 65 65 65 65 65 65 0
1 65 65 65 65 65 65 65 66 66 66 66 0
1 66 66 66 66 66 66 66 66 66 66 66 0
1 67 67 67 67 67 67 67 67 67 67 67 0
1 67 67 68 68 68 68 68 68 68 68 68 0
1 68 68 68 68 68 68 69 69 69 69 69 0
1 69 69 69 69 69 69 69 69 69 69 69 0
1 69 69 69 69 69 69 69 69 69 70 70 0
1 70 70 70 70 70 70 70 70 70 70 70 0
1 70 70 70 70 70 70 70 71 71 71 71 0
1 71 71 71 71 71 71 71 71 71 71 71 0
1 71 71 71 71 71 72 72 72 72 72 72 0
1 72 72 72 72 72 72 72 72 72 72 72 0
1 72 73 73 73 73 73 73 73 73 73 73 0
1 73 73 73 73 73 73 74 74 74 74 74 0
1 74 74 74 74 75 75 75 75 75 75 75 0
1 75 75 75 75 75 75 75 75 75 75 76 0
1 76 76 76 76 76 76 76 76 76 76 76 0
1 76 76 76 76 76 76 76 77 77 77 77 0
1 77 77 77 77 77 77 77 77 77 77 77 0
1 77 77 77 77 78 78 78 78 78 78 78 0
1 78 78 78 78 78 78 78 78 78 78 78 0
1 78 78 78 78 78 78 78 78 78 78 79 0
1 79 79 79 79 79 79 79 79 79 79 79 0
1 79 79 79 79 79 79 80 80 80 80 80 0
1 80 80 80 80 80 80 80 80 80 80 80 0
1 80 80 80 80 81 81 81 81 81 81 81 0
1 81 81 81 81 81 81 81 81 81 81 81 0
1 81 81 81 81 81 81 81 81 81 81 81 0
1 82 82 82 82 82 82 82 82 82 82 82 0
1 82 82 82 83 83 83 83 83 83 83 83 0
1 83 83 83 83 83 83 83 83 83 83 83 0
1 84 84 84 84 84 84 84 84 84 84 84 0
1 84 85 85 85 85 85 85 85 85 85 85 0
1 85 85 85 85 85 85 85 85 85 85 85 0
1 85 86 86 86 86 86 86 86 86 86 86 0
1 86 86 86 86 86 87 87 87 87 87 87 0
1 87 87 87 87 87 87 87 87 87 87 87 0
1 87 88 88 88 88 88 88 88 88 88 88 0
1 88 88 88 88 88 88 88 89 89 89 89 0
1 89 89 89 89 89 89 89 89 89 89 89 0
1 89 89 89 89 89 89 89 89 90 90 90 0
1 90 90 90 90 90 90 90 90 90 90 90 0
1 90 91 91 91 91 91 91 91 91 91 91 0
1 91 91 91 91 91 91 91 91 91 91 91 0
1 91 91 92 92 92 92 92 92 92 92 92 0
1 92 92 92 92 92 92 92 92 92 92 92 0
1 92 92 92 93 93 93 93 93 93 93 93 0
1 93 93 93 93 93 93 93 93 93 93 93 0
1 94 94 94 94 94 94 94 94 94 94 94 0
1 94 94 94 94 94 94 95 95 95 95 95 0
1 95 95 95 95 95 95 95 95 95 95 95 0
1 95 96 96 96 96 96 96 96 96 96 96 0
1 96 96 96 96 96 96 96 96 96 96 96 0
1 96 96 97 97 97 97 97 97 97 97 97 0
1 97 97 97 97 97 97 97 97 97 97 97 0
1 97 97 97 98 98 98 98 98 98 98 98 0
1 98 98 98 98 98 98 98 98 98 98 98 0
1 99 99 99 99 99 99 99 99 99 99 99 0
1 99 99 99 99 99 99 100 100 100 100 100 0
1 100 100 100 100 100 100 100 100 100 100 100 0
1 100 100 100 100 100 100 100 0
1  0
1 170 200 294 421 433 435 497 509 542 572 624 0
1 697 698 705 740 808 859 907 1039 1079 1206 1212 0
1 1282 1330 1427 1437 1449 1507 1532 1610 1624 1701 1915 0
1  0
1 46 107 111 126 154 319 431 487 610 615 722 0
1 931 952 981 983 1023 1116 1154 1213 1319 1369 1383 0
1 1450 1528 1639 1653 1689 1825 1883 1959 0
1  0
1 85 134 157 188 239 343 401 500 601 726 752 0
1 819 844 866 898 974 988 1018 1033 1048 1189 1334 0
1 1356 1363 1393 1492 1504 1586 1588 1691 1705 1750 1769 0
1 1965 1986 0
1  0
1 178 249 268 289 291 303 310 356 588 627 657 0
1 724 743 894 1017 1032 1080 1087 1105 1166 1275 1315 0
1 1351 1403 1424 1444 1484 1506 1530 1534 1586 1702 1744 0
1 1905 1951 0
1  0
1 55 78 313 437 444 469 522 644 671 697 711 0
1 828 851 890 933 949 959 960 962 973 974 979 0
1 1174 1179 1211 1339 1360 1392 1456 1501 1548 1571 1589 0
1 1629 1650 1702 1706 1713 1772 1824 1924 1988 0
1  0
1 75 172 307 431 455 569 637 704 722 741 941 0
1 1011 1158 1221 1267 1281 1359 1381 1428 1453 1511 1536 0
1 1625 1683 1712 1772 1794 1807 1855 1894 1914 0
1  0
1 33 95 213 477 485 507 508 550 601 602 679 0
1 757 843 927 956 964 1005 1041 1088 1124 1160 1222 0
1 1300 1343 1362 1383 1401 1475 1526 1565 1572 1633 1655 0
1 1667 1713 1739 1740 1760 1818 1898 1908 1948 1963 0
1  0
1 61 117 122 127 148 170 172 175 234 276 335 0
